n = 21;
k = 3;
roles = [
{g, f},
{m, f},
{d, f},
{d, f},
{f, g},
{m, f},
{d, g},
{f, d},
{m, d},
{g, d},
{d, g},
{f, m},
{f, d},
{f, d},
{f, g},
{f, m},
{m, f},
{g, m},
{m, g},
{g, d},
{f, g}
];
num_pairs = 2;
player1 = [9, 15];
player2 = [4, 20];
